101 660
1 69 27 28 101 53 26 12 80 68 29 24 54 4 55 25 39 67 23 56 75 41 22 74 72 73 21 40 58 13 94 95 96 6 89 99 92 59 93 85 91 98 100 37 97 87 2 57 15 43 42 14 38 44 86 16 61 17 84 5 60 83 45 8 46 47 36 49 64 63 90 32 20 66 65 71 35 34 78 79 3 77 76 50 33 81 9 51 30 10 62 11 19 48 82 7 18 52 88 31 70 
